
Gurobi 9.1.2 (linux64) logging started Thu Mar 31 09:07:28 2022

Changed value of parameter LogFile to ny_v-N11.log
   Prev:   Default: 
Changed value of parameter MIPFocus to 1
   Prev: 0  Min: 0  Max: 3  Default: 0
Changed value of parameter TimeLimit to 600.0
   Prev: inf  Min: 0.0  Max: inf  Default: inf
Warning: variables 0 and 130 have the same name "X[N2,N1]"
Warning: linear constraint 102 and linear constraint 103 have the same name "weight-constr-t5"
Warning: to let Gurobi read it back, use rlp format
Gurobi Optimizer version 9.1.2 build v9.1.2rc0 (linux64)
Thread count: 32 physical cores, 64 logical processors, using up to 32 threads
Optimize a model with 849 rows, 780 columns and 2802 nonzeros
Model fingerprint: 0x346a9357
Variable types: 96 continuous, 684 integer (684 binary)
Coefficient statistics:
  Matrix range     [1e+00, 1e+06]
  Objective range  [2e-01, 2e-01]
  Bounds range     [1e+00, 5e+05]
  RHS range        [1e+00, 1e+06]
Presolve removed 162 rows and 180 columns
Presolve time: 0.01s
Presolved: 687 rows, 600 columns, 4440 nonzeros
Variable types: 90 continuous, 510 integer (510 binary)

Root relaxation: objective 1.500000e+01, 75 iterations, 0.00 seconds

    Nodes    |    Current Node    |     Objective Bounds      |     Work
 Expl Unexpl |  Obj  Depth IntInf | Incumbent    BestBd   Gap | It/Node Time

     0     0   15.00000    0    2          -   15.00000      -     -    0s
H    0     0                      39.6666667   15.00000  62.2%     -    0s
H    0     0                      39.3333333   15.00000  61.9%     -    0s
H    0     0                      28.8333333   15.00000  48.0%     -    0s
H    0     0                      28.6666667   15.00000  47.7%     -    0s
H    0     0                      28.3333333   15.00000  47.1%     -    0s
H    0     0                      22.7500000   15.00000  34.1%     -    0s
     0     0   15.00000    0   23   22.75000   15.00000  34.1%     -    0s
H    0     0                      22.0000000   15.00000  31.8%     -    0s
H    0     0                      21.6666667   15.00000  30.8%     -    0s
H    0     0                      21.3333333   15.00000  29.7%     -    0s
     0     0   15.00000    0    2   21.33333   15.00000  29.7%     -    0s
     0     0   15.00000    0    6   21.33333   15.00000  29.7%     -    0s
     0     0   15.00000    0    2   21.33333   15.00000  29.7%     -    0s
H    0     0                      20.1666667   15.00000  25.6%     -    0s
     0     0   15.00000    0    2   20.16667   15.00000  25.6%     -    0s
H    0     0                      15.0000000   15.00000  0.00%     -    0s
     0     0   15.00000    0    6   15.00000   15.00000  0.00%     -    0s

Cutting planes:
  Cover: 1
  Implied bound: 9
  MIR: 5
  Flow cover: 6
  RLT: 4

Explored 1 nodes (1069 simplex iterations) in 0.13 seconds
Thread count was 32 (of 64 available processors)

Solution count 10: 15 20.1667 21.3333 ... 39.3333

Optimal solution found (tolerance 1.00e-04)
Best objective 1.500000000000e+01, best bound 1.500000000000e+01, gap 0.0000%
